c WARNING: for repeatability, setting FPU to use double precision
d VARIABLES            140866       
d CONSTRAINTS          512628       
c ============================[ Problem Statistics ]=============================
c |                                                                             |
c |  Number of variables:        140866                                         |
c |  Number of clauses:          512628                                         |
c |  Parse time:                   0.09 s                                       |
c |                                                                             |
c ============================[ Search Statistics ]==============================
c | Conflicts |          ORIGINAL         |          LEARNT          | Progress |
c |           |    Vars  Clauses Literals |    Limit  Clauses Lit/Cl |          |
c ===============================================================================
c |       100 |  110692   434406  1091027 |   159282      100      8 | 21.420 % |
c |       250 |  110692   434406  1091027 |   175210      250     52 | 21.420 % |
c |       475 |  110692   434406  1091027 |   192731      475     44 | 21.420 % |
c |       812 |  110692   434406  1091027 |   212004      812     59 | 21.420 % |
c |      1318 |  110692   434406  1091027 |   233205     1318     54 | 21.420 % |
c |      2077 |  110692   434406  1091027 |   256525     2077     68 | 21.420 % |
c |      3216 |  110692   434406  1091027 |   282178     3216     98 | 21.420 % |
c |      4924 |  110692   434406  1091027 |   310395     4924     81 | 21.420 % |
c |      7486 |  110692   434406  1091027 |   341435     7486     91 | 21.420 % |
c |     11330 |  110692   434406  1091027 |   375579    11330    104 | 21.420 % |
c |     17096 |  110692   434406  1091027 |   413137    17096    138 | 21.420 % |
c |     25745 |  110692   434406  1091027 |   454450    25745    163 | 21.420 % |
c |     38719 |  110692   434406  1091027 |   499895    38719    157 | 21.420 % |
c |     58180 |  110691   434402  1091017 |   549885    58177    156 | 21.421 % |
c |     87372 |  110691   434402  1091017 |   604873    87369    154 | 21.421 % |
c |    131161 |  110690   434398  1091007 |   665361   131156    154 | 21.422 % |
c |    196845 |  110690   434398  1091007 |   731897   196840    159 | 21.422 % |
c |    295371 |  110690   434398  1091007 |   805087   295366    159 | 21.422 % |
c ===============================================================================
c restarts              : 889
c conflicts             : 366073         (2332 /sec)
c decisions             : 1406202        (0.00 % random) (8960 /sec)
c propagations          : 522314794      (3327910 /sec)
c conflict literals     : 57085418       (36.74 % deleted)
d RESTARTS             889
d FAILURES             366073       
d NODES                1406202      
d BACKTRACKS           1406202      
d PROPAGATIONS         522314794    
d NOGOODSIZE           155.94 
d MEMORY               398.00 
d TIME                 156.95 

s SATISFIABLE
